proyfinal/src/viki/013/andrea/andrea-localstore/experimentInOfficeAgust.take6/worker_5/bb88145c-0c77-4327-a2d5-e796e8c805bc.als.cnf.out
Reading from standard input... Use '--help' for help.
============================[ Problem Statistics ]=============================
|                                                                             |
|  Number of variables:         87638                                         |
|  Number of clauses:          161767                                         |
|  Parse time:                   0.04 s                                       |
|                                                                             |
============================[ Search Statistics ]==============================
| Conflicts |          ORIGINAL         |          LEARNT          | Progress |
|           |    Vars  Clauses Literals |    Limit  Clauses Lit/Cl |          |
===============================================================================
|       100 |   62354   105105   262592 |    38538      100      9 | 28.850 % |
|       250 |   62354   105105   262592 |    42392      250     39 | 28.850 % |
|       475 |   62354   105105   262592 |    46631      475     48 | 28.851 % |
|       812 |   62335   105029   262411 |    51294      811     47 | 28.872 % |
|      1318 |   62334   104985   262321 |    56424     1314     48 | 28.873 % |
|      2077 |   50838    70890   178218 |    62066     1957     50 | 41.991 % |
|      3216 |   50639    70009   176071 |    68273     2907     47 | 42.218 % |
|      4924 |   50389    68951   173587 |    75100     4581     45 | 42.503 % |
|      7486 |   50386    68943   173571 |    82610     7142     49 | 42.507 % |
|     11330 |   50248    68462   172367 |    90871    10897     50 | 42.664 % |
===============================================================================
restarts              : 61
conflicts             : 14450          (9554 /sec)
decisions             : 41779          (0.00 % random) (27625 /sec)
propagations          : 16322932       (10792842 /sec)
conflict literals     : 678069         (43.87 % deleted)
Memory used           : 29.48 MB
CPU time              : 1.51239 s

UNSATISFIABLE
